NAME: risaralda14
TYPE: TSP
COMMENT: 14 municipios del departamento de Risaralda, Colombia
DIMENSION: 14
EDGE_WEIGHT_TYPE: EUC_2D
NODE_COORD_SECTION
1 4.813  -75.696
2 4.808  -75.888
3 5.068  -75.518
4 5.200  -75.873
5 5.333  -75.704
6 4.899  -75.872
7 5.312  -75.618
8 4.953  -75.922
9 5.221  -75.842
10 5.089 -75.667
11 5.266 -75.744
12 4.839 -75.674
13 4.993 -75.605
14 4.336 -75.830
EOF
